0 144190 
1 143890 
2 143490 
3 143030 
4 142430 
5 141830 
6 141620 
7 141420 
8 141190 
9 140790 
10 140590 
11 140090 
12 139490 
13 139030 
14 138930 
15 138530 
16 138330 
17 138030 
18 137830 
19 137730 
20 137530 
21 137520 
22 137210 
23 137110 
24 137010 
25 136810 
26 136400 
27 136200 
28 136100 
29 136000 
30 135400 
31 135300 
32 135100 
33 134690 
34 134390 
35 134150 
36 133750 
37 133450 
38 133310 
39 133110 
40 132910 
41 132210 
42 131810 
43 131610 
44 131410 
45 131110 
46 131050 
47 130740 
48 130540 
49 130340 
50 130240 
51 130140 
52 129320 
53 129090 
54 128690 
55 128290 
56 127970 
57 127870 
58 127670 
59 127270 
60 127070 
61 126900 
62 126760 
63 126560 
64 126260 
65 125760 
66 125560 
67 125360 
68 125160 
69 124900 
70 124770 
71 124700 
72 124640 
73 124440 
74 124240 
75 124140 
76 123840 
77 123640 
78 123240 
79 123140 
80 122740 
81 122640 
82 122550 
83 122350 
84 122150 
85 121950 
86 121690 
87 121550 
88 121350 
89 121350 
90 121150 
91 120750 
92 120650 
93 120540 
94 120540 
95 120530 
96 120350 
97 120350 
98 120250 
99 120070 
100 119810 
101 119610 
102 119410 
103 119210 
104 118810 
105 118610 
106 118010 
107 117810 
108 117410 
109 116810 
110 116550 
111 116430 
112 116370 
113 116230 
114 115930 
115 115870 
116 115770 
117 115070 
118 114970 
119 114470 
120 114340 
121 114280 
122 114170 
123 114070 
124 113870 
125 113810 
126 113310 
127 113110 
128 112910 
129 112570 
130 112270 
131 112270 
132 112100 
133 112000 
134 111800 
135 111700 
136 111600 
137 111080 
138 110910 
139 110810 
140 110610 
141 110310 
142 110310 
143 109810 
144 109510 
145 109240 
146 109140 
147 109040 
148 108940 
149 108740 
150 108220 
151 108020 
152 107820 
153 107810 
154 107810 
155 107610 
156 107310 
157 107010 
158 106910 
159 106810 
160 106810 
161 106410 
162 106210 
163 106010 
164 105910 
165 105910 
166 105870 
167 105660 
168 105460 
169 105360 
170 105360 
171 105260 
172 105160 
173 105060 
174 104660 
175 104060 
176 103860 
177 103860 
178 103260 
179 102160 
180 101760 
181 101360 
182 100960 
183 100760 
184 100560 
185 100560 
186 100560 
187 100560 
188 100360 
189 99560 
190 99360 
191 99160 
192 98760 
193 98360 
194 98360 
195 98160 
196 97460 
197 97460 
198 97460 
199 97360 
200 96960 
201 96560 
202 96360 
203 96260 
204 95560 
205 94660 
206 94660 
207 94060 
208 93660 
209 92660 
210 92060 
211 92060 
212 91760 
213 91560 
214 91460 
215 91060 
216 91060 
217 91060 
218 90860 
219 90560 
220 90560 
221 90560 
222 90560 
223 90560 
224 90560 
225 90560 
226 90560 
227 90560 
228 90560 
229 90560 
230 90560 
231 90560 
232 90560 
233 90560 
234 90560 
235 90560 
236 90560 
237 90560 
238 90560 
239 90560 
240 90560 
241 90560 
242 90560 
243 90560 
244 90560 
245 90560 
246 90560 
247 90560 
248 90560 
249 90560 
250 90560 
251 90560 
252 90560 
253 90560 
254 90560 
255 90560 
256 90560 
257 90560 
258 90560 
259 90560 
260 90560 
261 90560 
262 90560 
263 90560 
264 90560 
265 90560 
266 90560 
267 90560 
268 90560 
269 90560 
270 90560 
271 90560 
272 90560 
273 90560 
274 90560 
275 90560 
276 90560 
277 90560 
278 90560 
279 90560 
280 90560 
281 90560 
282 90560 
283 90560 
284 90560 
285 90560 
286 90560 
287 90560 
288 90560 
289 90560 
290 90560 
291 90560 
292 90560 
293 90560 
294 90560 
295 90560 
296 90560 
297 90560 
298 90560 
299 90560 
300 90560 
301 90560 
302 90560 
303 90560 
304 90560 
305 90560 
306 90560 
307 90560 
308 90560 
309 90560 
310 90560 
311 90560 
312 90560 
313 90560 
314 90560 
315 90560 
316 90560 
317 90560 
318 90560 
319 90560 
320 90560 
321 90560 
322 90560 
323 90560 
324 90560 
325 90560 
326 90560 
327 90560 
328 90560 
329 90560 
330 90560 
331 90560 
332 90560 
333 90560 
334 90560 
335 90560 
336 90560 
337 90560 
338 90560 
339 90560 
340 90560 
341 90560 
342 90560 
343 90560 
344 90560 
345 90560 
346 90560 
347 90560 
348 90560 
349 90560 
350 90560 
351 90560 
352 90560 
353 90560 
354 90560 
355 90560 
356 90560 
357 90560 
358 90560 
359 90560 
360 90560 
361 90560 
362 90560 
363 90560 
364 90560 
365 90560 
366 90560 
367 90560 
368 90560 
369 90560 
370 90560 
371 90560 
372 90560 
373 90560 
374 90560 
375 90560 
376 90560 
377 90560 
378 90560 
379 90560 
380 90560 
381 90560 
382 90560 
383 90560 
384 90560 
385 90560 
386 90560 
387 90560 
388 90560 
389 90560 
390 90560 
391 90560 
392 90560 
393 90560 
394 90560 
395 90560 
396 90560 
397 90560 
398 90560 
399 90560 
400 90560 
401 90560 
402 90560 
403 90560 
404 90560 
405 90560 
406 90560 
407 90560 
408 90560 
409 90560 
410 90560 
411 90560 
412 90560 
413 90560 
414 90560 
415 90560 
416 90560 
417 90560 
418 90560 
419 90560 
420 90560 
421 90560 
422 90560 
423 90560 
424 90560 
425 90560 
426 90560 
427 90560 
428 90560 
429 90560 
430 90560 
431 90560 
432 90560 
433 90560 
434 90560 
435 90560 
436 90560 
437 90560 
438 90560 
439 90560 
440 90560 
441 90560 
442 90560 
443 90560 
444 90560 
445 90560 
446 90560 
447 90560 
448 90560 
449 90560 
450 90560 
451 90560 
452 90560 
453 90560 
454 90560 
455 90560 
456 90560 
457 90560 
458 90560 
459 90560 
460 90560 
461 90560 
462 90560 
463 90560 
464 90560 
465 90560 
466 90560 
467 90560 
468 90560 
469 90560 
470 90560 
471 90560 
472 90560 
473 90560 
474 90560 
475 90560 
476 90560 
477 90560 
478 90560 
479 90560 
480 90560 
481 90560 
482 90560 
483 90560 
484 90560 
485 90560 
486 90560 
487 90560 
488 90560 
489 90560 
490 90560 
491 90560 
492 90560 
493 90560 
494 90560 
495 90560 
496 90560 
497 90560 
498 90560 
499 90560 
500 90560 
501 90560 
502 90560 
503 90560 
504 90560 
505 90560 
506 90560 
507 90560 
508 90560 
509 90560 
510 90560 
511 90560 
512 90560 
513 90560 
514 90560 
515 90560 
516 90560 
517 90560 
518 90560 
519 90560 
520 90560 
521 90560 
522 90560 
523 90560 
524 90560 
525 90560 
526 90560 
527 90560 
528 90560 
529 90560 
530 90560 
531 90560 
532 90560 
533 90560 
534 90560 
535 90560 
536 90560 
537 90560 
538 90560 
539 90560 
540 90560 
541 90560 
542 90560 
543 90560 
544 90560 
545 90560 
546 90560 
547 90560 
548 90560 
549 90560 
550 90560 
551 90560 
552 90560 
553 90560 
554 90560 
555 90560 
556 90560 
557 90560 
558 90560 
559 90560 
560 90560 
561 90560 
562 90560 
563 90560 
564 90560 
565 90560 
566 90560 
567 90560 
568 90560 
569 90560 
570 90560 
571 90560 
572 90560 
573 90560 
574 90560 
575 90560 
576 90560 
577 90560 
578 90560 
579 90560 
580 90560 
581 90560 
582 90560 
583 90560 
584 90560 
585 90560 
586 90560 
587 90560 
588 90560 
589 90560 
590 90560 
591 90560 
592 90560 
593 90560 
594 90560 
595 90560 
596 90560 
597 90560 
598 90560 
599 90560 
600 90560 
601 90560 
602 90560 
603 90560 
604 90560 
605 90560 
606 90560 
607 90560 
608 90560 
609 90560 
610 90560 
611 90560 
612 90560 
613 90560 
614 90560 
615 90560 
616 90560 
617 90560 
618 90560 
619 90560 
620 90560 
621 90560 
622 90560 
623 90560 
624 90560 
625 90560 
626 90560 
627 90560 
628 90560 
629 90560 
630 90560 
631 90560 
632 90560 
633 90560 
634 90560 
635 90560 
636 90560 
637 90560 
638 90560 
639 90560 
640 90560 
641 90560 
642 90560 
643 90560 
644 90560 
645 90560 
646 90560 
647 90560 
648 90560 
649 90560 
650 90560 
651 90560 
652 90560 
653 90560 
654 90560 
655 90560 
656 90560 
657 90560 
658 90560 
659 90560 
660 90560 
661 90560 
662 90560 
663 90560 
664 90560 
665 90560 
666 90560 
667 90560 
668 90560 
669 90560 
670 90560 
671 90560 
672 90560 
673 90560 
674 90560 
675 90560 
676 90560 
677 90560 
678 90560 
679 90560 
680 90560 
681 90560 
682 90560 
683 90560 
684 90560 
685 90560 
686 90560 
687 90560 
688 90560 
689 90560 
690 90560 
691 90560 
692 90560 
693 90560 
694 90560 
695 90560 
696 90560 
697 90560 
698 90560 
699 90560 
700 90560 
701 90560 
702 90560 
703 90560 
704 90560 
705 90560 
706 90560 
707 90560 
708 90560 
709 90560 
710 90560 
711 90560 
712 90560 
713 90560 
714 90560 
715 90560 
716 90560 
717 90560 
718 90560 
719 90560 
720 90560 
721 90560 
722 90560 
723 90560 
724 90560 
725 90560 
726 90560 
727 90560 
728 90560 
729 90560 
730 90560 
731 90560 
732 90560 
733 90560 
734 90560 
735 90560 
736 90560 
737 90560 
738 90560 
739 90560 
740 90560 
741 90560 
742 90560 
743 90560 
744 90560 
745 90560 
746 90560 
747 90560 
748 90560 
749 90560 
750 90560 
751 90560 
752 90560 
753 90560 
754 90560 
755 90560 
756 90560 
757 90560 
758 90560 
759 90560 
760 90560 
761 90560 
762 90560 
763 90560 
764 90560 
765 90560 
766 90560 
767 90560 
768 90560 
769 90560 
770 90560 
771 90560 
772 90560 
773 90560 
774 90560 
775 90560 
776 90560 
777 90560 
778 90560 
779 90560 
780 90560 
781 90560 
782 90560 
783 90560 
784 90560 
785 90560 
786 90560 
787 90560 
788 90560 
789 90560 
790 90560 
791 90560 
792 90560 
793 90560 
794 90560 
795 90560 
796 90560 
797 90560 
798 90560 
799 90560 
800 90560 
801 90560 
802 90560 
803 90560 
804 90560 
805 90560 
806 90560 
807 90560 
808 90560 
809 90560 
810 90560 
811 90560 
812 90560 
813 90560 
814 90560 
815 90560 
816 90560 
817 90560 
818 90560 
819 90560 
820 90560 
821 90560 
822 90560 
823 90560 
824 90560 
825 90560 
826 90560 
827 90560 
828 90560 
829 90560 
830 90560 
831 90560 
832 90560 
833 90560 
834 90560 
835 90560 
836 90560 
837 90560 
838 90560 
839 90560 
840 90560 
841 90560 
842 90560 
843 90560 
844 90560 
845 90560 
846 90560 
847 90560 
848 90560 
849 90560 
850 90560 
851 90560 
852 90560 
853 90560 
854 90560 
855 90560 
856 90560 
857 90560 
858 90560 
859 90560 
860 90560 
861 90560 
862 90560 
863 90560 
864 90560 
865 90560 
866 90560 
867 90560 
868 90560 
869 90560 
870 90560 
871 90560 
872 90560 
873 90560 
874 90560 
875 90560 
876 90560 
877 90560 
878 90560 
879 90560 
880 90560 
881 90560 
882 90560 
883 90560 
884 90560 
885 90560 
886 90560 
887 90560 
888 90560 
889 90560 
890 90560 
891 90560 
892 90560 
893 90560 
894 90560 
895 90560 
896 90560 
897 90560 
898 90560 
899 90560 
900 90560 
901 90560 
902 90560 
903 90560 
904 90560 
905 90560 
906 90560 
907 90560 
908 90560 
909 90560 
910 90560 
911 90560 
912 90560 
913 90560 
914 90560 
915 90560 
916 90560 
917 90560 
918 90560 
919 90560 
920 90560 
921 90560 
922 90560 
923 90560 
924 90560 
925 90560 
926 90560 
927 90560 
928 90560 
929 90560 
930 90560 
931 90560 
932 90560 
933 90560 
934 90560 
935 90560 
936 90560 
937 90560 
938 90560 
939 90560 
940 90560 
941 90560 
942 90560 
943 90560 
944 90560 
945 90560 
946 90560 
947 90560 
948 90560 
949 90560 
950 90560 
951 90560 
952 90560 
953 90560 
954 90560 
955 90560 
956 90560 
957 90560 
958 90560 
959 90560 
960 90560 
961 90560 
962 90560 
963 90560 
964 90560 
965 90560 
966 90560 
967 90560 
968 90560 
969 90560 
970 90560 
971 90560 
972 90560 
973 90560 
974 90560 
975 90560 
976 90560 
977 90560 
978 90560 
979 90560 
980 90560 
981 90560 
982 90560 
983 90560 
984 90560 
985 90560 
986 90560 
987 90560 
988 90560 
989 90560 
990 90560 
991 90560 
992 90560 
993 90560 
994 90560 
995 90560 
996 90560 
997 90560 
998 90560 
999 90560 
1000 90560 
1001 90560 
1002 90560 
1003 90560 
1004 90560 
1005 90560 
1006 90560 
1007 90560 
1008 90560 
1009 90560 
1010 90560 
1011 90560 
1012 90560 
1013 90560 
1014 90560 
1015 90560 
1016 90560 
1017 90560 
1018 90560 
1019 90560 
1020 90560 
1021 90560 
1022 90560 
1023 90560 
1024 90560 
1025 90560 
1026 90560 
1027 90560 
1028 90560 
1029 90560 
1030 90560 
1031 90560 
1032 90560 
1033 90560 
1034 90560 
1035 90560 
1036 90560 
1037 90560 
1038 90560 
1039 90560 
1040 90560 
1041 90560 
1042 90560 
1043 90560 
1044 90560 
1045 90560 
1046 90560 
1047 90560 
1048 90560 
1049 90560 
1050 90560 
1051 90560 
1052 90560 
1053 90560 
1054 90560 
1055 90560 
1056 90560 
1057 90560 
1058 90560 
1059 90560 
1060 90560 
1061 90560 
1062 90560 
1063 90560 
1064 90560 
1065 90560 
1066 90560 
1067 90560 
1068 90560 
1069 90560 
1070 90560 
1071 90560 
1072 90560 
1073 90560 
1074 90560 
1075 90560 
1076 90560 
1077 90560 
1078 90560 
1079 90560 
1080 90560 
1081 90560 
1082 90560 
1083 90560 
1084 90560 
1085 90560 
1086 90560 
1087 90560 
1088 90560 
1089 90560 
1090 90560 
1091 90560 
1092 90560 
1093 90560 
1094 90560 
1095 90560 
1096 90560 
1097 90560 
1098 90560 
1099 90560 
1100 90560 
1101 90560 
1102 90560 
1103 90560 
1104 90560 
1105 90560 
1106 90560 
1107 90560 
1108 90560 
1109 90560 
1110 90560 
1111 90560 
1112 90560 
1113 90560 
1114 90560 
1115 90560 
1116 90560 
1117 90560 
1118 90560 
1119 90560 
1120 90560 
1121 90560 
1122 90560 
1123 90560 
1124 90560 
1125 90560 
1126 90560 
1127 90560 
1128 90560 
1129 90560 
1130 90560 
1131 90560 
1132 90560 
1133 90560 
1134 90560 
1135 90560 
1136 90560 
1137 90560 
1138 90560 
1139 90560 
1140 90560 
1141 90560 
1142 90560 
1143 90560 
1144 90560 
1145 90560 
1146 90560 
1147 90560 
1148 90560 
1149 90560 
1150 90560 
1151 90560 
1152 90560 
1153 90560 
1154 90560 
1155 90560 
1156 90560 
1157 90560 
1158 90560 
1159 90560 
1160 90560 
1161 90560 
1162 90560 
1163 90560 
1164 90560 
1165 90560 
1166 90560 
1167 90560 
1168 90560 
1169 90560 
1170 90560 
1171 90560 
1172 90560 
1173 90560 
1174 90560 
1175 90560 
1176 90560 
1177 90560 
1178 90560 
1179 90560 
1180 90560 
1181 90560 
1182 90560 
1183 90560 
1184 90560 
1185 90560 
1186 90560 
1187 90560 
1188 90560 
1189 90560 
1190 90560 
1191 90560 
1192 90560 
1193 90560 
1194 90560 
1195 90560 
1196 90560 
1197 90560 
1198 90560 
1199 90560 
1200 90560 
1201 90560 
1202 90560 
1203 90560 
1204 90560 
1205 90560 
1206 90560 
1207 90560 
1208 90560 
1209 90560 
1210 90560 
1211 90560 
1212 90560 
1213 90560 
1214 90560 
1215 90560 
1216 90560 
1217 90560 
1218 90560 
1219 90560 
1220 90560 
1221 90560 
1222 90560 
1223 90560 
1224 90560 
1225 90560 
1226 90560 
1227 90560 
1228 90560 
1229 90560 
1230 90560 
1231 90560 
1232 90560 
1233 90560 
1234 90560 
1235 90560 
1236 90560 
1237 90560 
1238 90560 
1239 90560 
1240 90560 
1241 90560 
1242 90560 
1243 90560 
1244 90560 
1245 90560 
1246 90560 
1247 90560 
1248 90560 
1249 90560 
1250 90560 
1251 90560 
1252 90560 
1253 90560 
1254 90560 
1255 90560 
1256 90560 
1257 90560 
1258 90560 
1259 90560 
1260 90560 
1261 90560 
1262 90560 
1263 90560 
1264 90560 
1265 90560 
1266 90560 
1267 90560 
1268 90560 
1269 90560 
1270 90560 
1271 90560 
1272 90560 
1273 90560 
1274 90560 
1275 90560 
1276 90560 
1277 90560 
1278 90560 
1279 90560 
1280 90560 
1281 90560 
1282 90560 
1283 90560 
1284 90560 
1285 90560 
1286 90560 
1287 90560 
1288 90560 
1289 90560 
1290 90560 
1291 90560 
1292 90560 
1293 90560 
1294 90560 
1295 90560 
1296 90560 
1297 90560 
1298 90560 
1299 90560 
1300 90560 
1301 90560 
1302 90560 
1303 90560 
1304 90560 
1305 90560 
1306 90560 
1307 90560 
1308 90560 
1309 90560 
1310 90560 
1311 90560 
1312 90560 
1313 90560 
1314 90560 
1315 90560 
1316 90560 
1317 90560 
1318 90560 
1319 90560 
1320 90560 
1321 90560 
1322 90560 
1323 90560 
1324 90560 
1325 90560 
1326 90560 
1327 90560 
1328 90560 
1329 90560 
1330 90560 
1331 90560 
1332 90560 
1333 90560 
1334 90560 
1335 90560 
1336 90560 
1337 90560 
1338 90560 
1339 90560 
1340 90560 
1341 90560 
1342 90560 
1343 90560 
1344 90560 
1345 90560 
1346 90560 
1347 90560 
1348 90560 
1349 90560 
1350 90560 
1351 90560 
1352 90560 
1353 90560 
1354 90560 
1355 90560 
1356 90560 
1357 90560 
1358 90560 
1359 90560 
1360 90560 
1361 90560 
1362 90560 
1363 90560 
1364 90560 
1365 90560 
1366 90560 
1367 90560 
1368 90560 
1369 90560 
1370 90560 
1371 90560 
1372 90560 
1373 90560 
1374 90560 
1375 90560 
1376 90560 
1377 90560 
1378 90560 
1379 90560 
1380 90560 
1381 90560 
1382 90560 
1383 90560 
1384 90560 
1385 90560 
1386 90560 
1387 90560 
1388 90560 
1389 90560 
1390 90560 
1391 90560 
1392 90560 
1393 90560 
1394 90560 
1395 90560 
1396 90560 
1397 90560 
1398 90560 
1399 90560 
1400 90560 
1401 90560 
1402 90560 
1403 90560 
1404 90560 
1405 90560 
1406 90560 
1407 90560 
1408 90560 
1409 90560 
1410 90560 
1411 90560 
1412 90560 
1413 90560 
1414 90560 
1415 90560 
1416 90560 
1417 90560 
1418 90560 
1419 90560 
1420 90560 
1421 90560 
1422 90560 
1423 90560 
1424 90560 
1425 90560 
1426 90560 
1427 90560 
1428 90560 
1429 90560 
1430 90560 
1431 90560 
1432 90560 
1433 90560 
1434 90560 
1435 90560 
1436 90560 
1437 90560 
1438 90560 
1439 90560 
1440 90560 
1441 90560 
1442 90560 
1443 90560 
1444 90560 
1445 90560 
1446 90560 
1447 90560 
1448 90560 
1449 90560 
1450 90560 
1451 90560 
1452 90560 
1453 90560 
1454 90560 
1455 90560 
1456 90560 
1457 90560 
1458 90560 
1459 90560 
1460 90560 
1461 90560 
1462 90560 
1463 90560 
1464 90560 
1465 90560 
1466 90560 
1467 90560 
1468 90560 
1469 90560 
1470 90560 
1471 90560 
1472 90560 
1473 90560 
1474 90560 
1475 90560 
1476 90560 
1477 90560 
1478 90560 
1479 90560 
1480 90560 
1481 90560 
1482 90560 
1483 90560 
1484 90560 
1485 90560 
1486 90560 
1487 90560 
1488 90560 
1489 90560 
1490 90560 
1491 90560 
1492 90560 
1493 90560 
1494 90560 
1495 90560 
1496 90560 
1497 90560 
1498 90560 
1499 90560 
1500 90560 
1501 90560 
1502 90560 
1503 90560 
1504 90560 
1505 90560 
1506 90560 
1507 90560 
1508 90560 
1509 90560 
1510 90560 
1511 90560 
1512 90560 
1513 90560 
1514 90560 
1515 90560 
1516 90560 
1517 90560 
1518 90560 
1519 90560 
1520 90560 
1521 90560 
1522 90560 
1523 90560 
1524 90560 
1525 90560 
1526 90560 
1527 90560 
1528 90560 
1529 90560 
1530 90560 
1531 90560 
1532 90560 
1533 90560 
1534 90560 
1535 90560 
1536 90560 
1537 90560 
1538 90560 
1539 90560 
1540 90560 
1541 90560 
1542 90560 
1543 90560 
1544 90560 
1545 90560 
1546 90560 
1547 90560 
1548 90560 
1549 90560 
1550 90560 
1551 90560 
1552 90560 
1553 90560 
1554 90560 
1555 90560 
1556 90560 
1557 90560 
1558 90560 
1559 90560 
1560 90560 
1561 90560 
1562 90560 
1563 90560 
1564 90560 
1565 90560 
1566 90560 
1567 90560 
1568 90560 
1569 90560 
1570 90560 
1571 90560 
1572 90560 
1573 90560 
1574 90560 
1575 90560 
1576 90560 
1577 90560 
1578 90560 
1579 90560 
1580 90560 
1581 90560 
1582 90560 
1583 90560 
1584 90560 
1585 90560 
1586 90560 
1587 90560 
1588 90560 
1589 90560 
1590 90560 
1591 90560 
1592 90560 
1593 90560 
1594 90560 
1595 90560 
1596 90560 
1597 90560 
1598 90560 
1599 90560 
1600 90560 
1601 90560 
1602 90560 
1603 90560 
1604 90560 
1605 90560 
1606 90560 
1607 90560 
1608 90560 
1609 90560 
1610 90560 
1611 90560 
1612 90560 
1613 90560 
1614 90560 
1615 90560 
1616 90560 
1617 90560 
1618 90560 
1619 90560 
1620 90560 
1621 90560 
1622 90560 
1623 90560 
1624 90560 
1625 90560 
1626 90560 
1627 90560 
1628 90560 
1629 90560 
1630 90560 
1631 90560 
1632 90560 
1633 90560 
1634 90560 
1635 90560 
1636 90560 
1637 90560 
1638 90560 
1639 90560 
1640 90560 
1641 90560 
1642 90560 
1643 90560 
1644 90560 
1645 90560 
1646 90560 
1647 90560 
1648 90560 
1649 90560 
1650 90560 
1651 90560 
1652 90560 
1653 90560 
1654 90560 
1655 90560 
1656 90560 
1657 90560 
1658 90560 
1659 90560 
1660 90560 
1661 90560 
1662 90560 
1663 90560 
1664 90560 
1665 90560 
1666 90560 
1667 90560 
1668 90560 
1669 90560 
1670 90560 
1671 90560 
1672 90560 
1673 90560 
1674 90560 
1675 90560 
1676 90560 
1677 90560 
1678 90560 
1679 90560 
1680 90560 
1681 90560 
1682 90560 
1683 90560 
1684 90560 
1685 90560 
1686 90560 
1687 90560 
1688 90560 
1689 90560 
1690 90560 
1691 90560 
1692 90560 
1693 90560 
1694 90560 
1695 90560 
1696 90560 
1697 90560 
1698 90560 
1699 90560 
1700 90560 
1701 90560 
1702 90560 
1703 90560 
1704 90560 
1705 90560 
1706 90560 
1707 90560 
1708 90560 
1709 90560 
1710 90560 
1711 90560 
1712 90560 
1713 90560 
1714 90560 
1715 90560 
1716 90560 
1717 90560 
1718 90560 
1719 90560 
1720 90560 
1721 90560 
1722 90560 
1723 90560 
1724 90560 
1725 90560 
1726 90560 
1727 90560 
1728 90560 
1729 90560 
1730 90560 
1731 90560 
1732 90560 
1733 90560 
1734 90560 
1735 90560 
1736 90560 
1737 90560 
1738 90560 
1739 90560 
1740 90560 
1741 90560 
1742 90560 
1743 90560 
1744 90560 
1745 90560 
1746 90560 
1747 90560 
1748 90560 
1749 90560 
1750 90560 
1751 90560 
1752 90560 
1753 90560 
1754 90560 
1755 90560 
1756 90560 
1757 90560 
1758 90560 
1759 90560 
1760 90560 
1761 90560 
1762 90560 
1763 90560 
1764 90560 
1765 90560 
1766 90560 
1767 90560 
1768 90560 
1769 90560 
1770 90560 
1771 90560 
1772 90560 
1773 90560 
1774 90560 
1775 90560 
1776 90560 
1777 90560 
1778 90560 
1779 90560 
1780 90560 
1781 90560 
1782 90560 
1783 90560 
1784 90560 
1785 90560 
1786 90560 
1787 90560 
1788 90560 
1789 90560 
1790 90560 
1791 90560 
1792 90560 
1793 90560 
1794 90560 
1795 90560 
1796 90560 
1797 90560 
1798 90560 
1799 90560 
1800 90560 
1801 90560 
1802 90560 
1803 90560 
1804 90560 
1805 90560 
1806 90560 
1807 90560 
1808 90560 
1809 90560 
1810 90560 
1811 90560 
1812 90560 
1813 90560 
1814 90560 
1815 90560 
1816 90560 
1817 90560 
1818 90560 
1819 90560 
1820 90560 
1821 90560 
1822 90560 
1823 90560 
1824 90560 
1825 90560 
1826 90560 
1827 90560 
1828 90560 
1829 90560 
1830 90560 
1831 90560 
1832 90560 
1833 90560 
1834 90560 
1835 90560 
1836 90560 
1837 90560 
1838 90560 
1839 90560 
1840 90560 
1841 90560 
1842 90560 
1843 90560 
1844 90560 
1845 90560 
1846 90560 
1847 90560 
1848 90560 
1849 90560 
1850 90560 
1851 90560 
1852 90560 
1853 90560 
1854 90560 
1855 90560 
1856 90560 
1857 90560 
1858 90560 
1859 90560 
1860 90560 
1861 90560 
1862 90560 
1863 90560 
1864 90560 
1865 90560 
1866 90560 
1867 90560 
1868 90560 
1869 90560 
1870 90560 
1871 90560 
1872 90560 
1873 90560 
1874 90560 
1875 90560 
1876 90560 
1877 90560 
1878 90560 
1879 90560 
1880 90560 
1881 90560 
1882 90560 
1883 90560 
1884 90560 
1885 90560 
1886 90560 
1887 90560 
1888 90560 
1889 90560 
1890 90560 
1891 90560 
1892 90560 
1893 90560 
1894 90560 
1895 90560 
1896 90560 
1897 90560 
1898 90560 
1899 90560 
1900 90560 
1901 90560 
1902 90560 
1903 90560 
1904 90560 
1905 90560 
1906 90560 
1907 90560 
1908 90560 
1909 90560 
1910 90560 
1911 90560 
1912 90560 
1913 90560 
1914 90560 
1915 90560 
1916 90560 
1917 90560 
1918 90560 
1919 90560 
1920 90560 
1921 90560 
1922 90560 
1923 90560 
1924 90560 
1925 90560 
1926 90560 
1927 90560 
1928 90560 
1929 90560 
1930 90560 
1931 90560 
1932 90560 
1933 90560 
1934 90560 
1935 90560 
1936 90560 
1937 90560 
1938 90560 
1939 90560 
1940 90560 
1941 90560 
1942 90560 
1943 90560 
1944 90560 
1945 90560 
1946 90560 
1947 90560 
1948 90560 
1949 90560 
1950 90560 
1951 90560 
1952 90560 
1953 90560 
1954 90560 
1955 90560 
1956 90560 
1957 90560 
1958 90560 
1959 90560 
1960 90560 
1961 90560 
1962 90560 
1963 90560 
1964 90560 
1965 90560 
1966 90560 
1967 90560 
1968 90560 
1969 90560 
1970 90560 
1971 90560 
1972 90560 
1973 90560 
1974 90560 
1975 90560 
1976 90560 
1977 90560 
1978 90560 
1979 90560 
1980 90560 
1981 90560 
1982 90560 
1983 90560 
1984 90560 
1985 90560 
1986 90560 
1987 90560 
1988 90560 
1989 90560 
1990 90560 
1991 90560 
1992 90560 
1993 90560 
1994 90560 
1995 90560 
1996 90560 
1997 90560 
1998 90560 
1999 90560 
2000 90560 
2001 90560 
2002 90560 
2003 90560 
2004 90560 
2005 90560 
2006 90560 
2007 90560 
2008 90560 
2009 90560 
2010 90560 
2011 90560 
2012 90560 
2013 90560 
2014 90560 
2015 90560 
2016 90560 
2017 90560 
2018 90560 
2019 90560 
2020 90560 
2021 90560 
2022 90560 
2023 90560 
2024 90560 
2025 90560 
2026 90560 
2027 90560 
2028 90560 
2029 90560 
2030 90560 
2031 90560 
2032 90560 
2033 90560 
2034 90560 
2035 90560 
2036 90560 
2037 90560 
2038 90560 
2039 90560 
2040 90560 
2041 90560 
2042 90560 
2043 90560 
2044 90560 
2045 90560 
2046 90560 
2047 90560 
2048 90560 
2049 90560 
2050 90560 
2051 90560 
2052 90560 
2053 90560 
2054 90560 
2055 90560 
2056 90560 
2057 90560 
2058 90560 
2059 90560 
2060 90560 
2061 90560 
2062 90560 
2063 90560 
2064 90560 
2065 90560 
2066 90560 
2067 90560 
2068 90560 
2069 90560 
2070 90560 
2071 90560 
2072 90560 
2073 90560 
2074 90560 
2075 90560 
2076 90560 
2077 90560 
2078 90560 
2079 90560 
2080 90560 
2081 90560 
2082 90560 
2083 90560 
2084 90560 
2085 90560 
2086 90560 
2087 90560 
2088 90560 
2089 90560 
2090 90560 
2091 90560 
2092 90560 
2093 90560 
2094 90560 
2095 90560 
2096 90560 
2097 90560 
2098 90560 
2099 90560 
2100 90560 
2101 90560 
2102 90560 
2103 90560 
2104 90560 
2105 90560 
2106 90560 
2107 90560 
2108 90560 
2109 90560 
2110 90560 
2111 90560 
2112 90560 
2113 90560 
2114 90560 
2115 90560 
2116 90560 
2117 90560 
2118 90560 
2119 90560 
2120 90560 
2121 90560 
2122 90560 
2123 90560 
2124 90560 
2125 90560 
2126 90560 
2127 90560 
2128 90560 
2129 90560 
2130 90560 
2131 90560 
2132 90560 
2133 90560 
2134 90560 
2135 90560 
2136 90560 
2137 90560 
2138 90560 
2139 90560 
2140 90560 
2141 90560 
2142 90560 
2143 90560 
2144 90560 
2145 90560 
2146 90560 
2147 90560 
2148 90560 
2149 90560 
2150 90560 
2151 90560 
2152 90560 
2153 90560 
2154 90560 
2155 90560 
2156 90560 
2157 90560 
2158 90560 
2159 90560 
2160 90560 
2161 90560 
2162 90560 
2163 90560 
2164 90560 
2165 90560 
2166 90560 
2167 90560 
2168 90560 
2169 90560 
2170 90560 
2171 90560 
2172 90560 
2173 90560 
2174 90560 
2175 90560 
2176 90560 
2177 90560 
2178 90560 
2179 90560 
2180 90560 
2181 90560 
2182 90560 
2183 90560 
2184 90560 
2185 90560 
2186 90560 
2187 90560 
2188 90560 
2189 90560 
2190 90560 
2191 90560 
2192 90560 
2193 90560 
2194 90560 
2195 90560 
2196 90560 
2197 90560 
2198 90560 
2199 90560 
2200 90560 
2201 90560 
2202 90560 
2203 90560 
2204 90560 
2205 90560 
2206 90560 
2207 90560 
2208 90560 
2209 90560 
2210 90560 
2211 90560 
2212 90560 
2213 90560 
2214 90560 
2215 90560 
2216 90560 
2217 90560 
2218 90560 
2219 90560 
2220 90560 
2221 90560 
2222 90560 
2223 90560 
2224 90560 
2225 90560 
2226 90560 
2227 90560 
2228 90560 
2229 90560 
2230 90560 
2231 90560 
2232 90560 
2233 90560 
2234 90560 
2235 90560 
2236 90560 
2237 90560 
2238 90560 
2239 90560 
2240 90560 
2241 90560 
2242 90560 
2243 90560 
2244 90560 
2245 90560 
2246 90560 
2247 90560 
2248 90560 
2249 90560 
2250 90560 
2251 90560 
2252 90560 
2253 90560 
2254 90560 
2255 90560 
2256 90560 
2257 90560 
2258 90560 
2259 90560 
2260 90560 
2261 90560 
2262 90560 
2263 90560 
2264 90560 
2265 90560 
2266 90560 
2267 90560 
2268 90560 
2269 90560 
2270 90560 
2271 90560 
2272 90560 
2273 90560 
2274 90560 
2275 90560 
2276 90560 
2277 90560 
2278 90560 
2279 90560 
2280 90560 
2281 90560 
2282 90560 
2283 90560 
2284 90560 
2285 90560 
2286 90560 
2287 90560 
2288 90560 
2289 90560 
2290 90560 
2291 90560 
2292 90560 
2293 90560 
2294 90560 
2295 90560 
2296 90560 
2297 90560 
2298 90560 
2299 90560 
2300 90560 
2301 90560 
2302 90560 
2303 90560 
2304 90560 
2305 90560 
2306 90560 
2307 90560 
2308 90560 
2309 90560 
2310 90560 
2311 90560 
2312 90560 
2313 90560 
2314 90560 
2315 90560 
2316 90560 
2317 90560 
2318 90560 
2319 90560 
2320 90560 
2321 90560 
2322 90560 
2323 90560 
2324 90560 
2325 90560 
2326 90560 
2327 90560 
2328 90560 
2329 90560 
2330 90560 
2331 90560 
2332 90560 
2333 90560 
2334 90560 
2335 90560 
2336 90560 
2337 90560 
2338 90560 
2339 90560 
2340 90560 
2341 90560 
2342 90560 
2343 90560 
2344 90560 
2345 90560 
2346 90560 
2347 90560 
2348 90560 
2349 90560 
2350 90560 
2351 90560 
2352 90560 
2353 90560 
2354 90560 
2355 90560 
2356 90560 
2357 90560 
2358 90560 
2359 90560 
2360 90560 
2361 90560 
2362 90560 
2363 90560 
2364 90560 
2365 90560 
2366 90560 
2367 90560 
2368 90560 
2369 90560 
2370 90560 
2371 90560 
2372 90560 
2373 90560 
2374 90560 
2375 90560 
2376 90560 
2377 90560 
2378 90560 
2379 90560 
2380 90560 
2381 90560 
2382 90560 
2383 90560 
2384 90560 
2385 90560 
2386 90560 
2387 90560 
2388 90560 
2389 90560 
2390 90560 
2391 90560 
2392 90560 
2393 90560 
2394 90560 
2395 90560 
2396 90560 
2397 90560 
2398 90560 
2399 90560 
2400 90560 
2401 90560 
2402 90560 
2403 90560 
2404 90560 
2405 90560 
2406 90560 
2407 90560 
2408 90560 
2409 90560 
2410 90560 
2411 90560 
2412 90560 
2413 90560 
2414 90560 
2415 90560 
2416 90560 
2417 90560 
2418 90560 
2419 90560 
2420 90560 
2421 90560 
2422 90560 
2423 90560 
2424 90560 
2425 90560 
2426 90560 
2427 90560 
2428 90560 
2429 90560 
2430 90560 
2431 90560 
2432 90560 
2433 90560 
2434 90560 
2435 90560 
2436 90560 
2437 90560 
2438 90560 
2439 90560 
2440 90560 
2441 90560 
2442 90560 
2443 90560 
2444 90560 
2445 90560 
2446 90560 
2447 90560 
2448 90560 
2449 90560 
2450 90560 
2451 90560 
2452 90560 
2453 90560 
2454 90560 
2455 90560 
2456 90560 
2457 90560 
2458 90560 
2459 90560 
2460 90560 
2461 90560 
2462 90560 
2463 90560 
2464 90560 
2465 90560 
2466 90560 
2467 90560 
2468 90560 
2469 90560 
2470 90560 
2471 90560 
2472 90560 
2473 90560 
2474 90560 
2475 90560 
2476 90560 
2477 90560 
2478 90560 
2479 90560 
2480 90560 
2481 90560 
2482 90560 
2483 90560 
2484 90560 
2485 90560 
2486 90560 
2487 90560 
2488 90560 
2489 90560 
2490 90560 
2491 90560 
2492 90560 
2493 90560 
2494 90560 
2495 90560 
2496 90560 
2497 90560 
2498 90560 
2499 90560 
2500 90560 
2501 90560 
2502 90560 
2503 90560 
2504 90560 
2505 90560 
2506 90560 
2507 90560 
2508 90560 
2509 90560 
2510 90560 
2511 90560 
2512 90560 
2513 90560 
2514 90560 
2515 90560 
2516 90560 
2517 90560 
2518 90560 
2519 90560 
2520 90560 
2521 90560 
2522 90560 
2523 90560 
2524 90560 
2525 90560 
2526 90560 
2527 90560 
2528 90560 
2529 90560 
2530 90560 
2531 90560 
2532 90560 
2533 90560 
2534 90560 
2535 90560 
2536 90560 
2537 90560 
2538 90560 
2539 90560 
2540 90560 
2541 90560 
2542 90560 
2543 90560 
2544 90560 
2545 90560 
2546 90560 
2547 90560 
2548 90560 
2549 90560 
2550 90560 
2551 90560 
2552 90560 
2553 90560 
2554 90560 
2555 90560 
2556 90560 
2557 90560 
2558 90560 
2559 90560 
2560 90560 
2561 90560 
2562 90560 
2563 90560 
2564 90560 
2565 90560 
2566 90560 
2567 90560 
2568 90560 
2569 90560 
2570 90560 
2571 90560 
2572 90560 
2573 90560 
2574 90560 
2575 90560 
2576 90560 
2577 90560 
2578 90560 
2579 90560 
2580 90560 
2581 90560 
2582 90560 
2583 90560 
2584 90560 
2585 90560 
2586 90560 
2587 90560 
2588 90560 
2589 90560 
2590 90560 
2591 90560 
2592 90560 
2593 90560 
2594 90560 
2595 90560 
2596 90560 
2597 90560 
2598 90560 
2599 90560 
2600 90560 
2601 90560 
2602 90560 
2603 90560 
2604 90560 
2605 90560 
2606 90560 
2607 90560 
2608 90560 
2609 90560 
2610 90560 
2611 90560 
2612 90560 
2613 90560 
2614 90560 
2615 90560 
2616 90560 
2617 90560 
2618 90560 
2619 90560 
2620 90560 
2621 90560 
2622 90560 
2623 90560 
2624 90560 
2625 90560 
2626 90560 
2627 90560 
2628 90560 
2629 90560 
2630 90560 
2631 90560 
2632 90560 
2633 90560 
2634 90560 
2635 90560 
2636 90560 
2637 90560 
2638 90560 
2639 90560 
2640 90560 
2641 90560 
2642 90560 
2643 90560 
2644 90560 
2645 90560 
2646 90560 
2647 90560 
2648 90560 
2649 90560 
2650 90560 
2651 90560 
2652 90560 
2653 90560 
2654 90560 
2655 90560 
2656 90560 
2657 90560 
2658 90560 
2659 90560 
2660 90560 
2661 90560 
2662 90560 
2663 90560 
2664 90560 
2665 90560 
2666 90560 
2667 90560 
2668 90560 
2669 90560 
2670 90560 
2671 90560 
2672 90560 
2673 90560 
2674 90560 
2675 90560 
2676 90560 
2677 90560 
2678 90560 
2679 90560 
2680 90560 
2681 90560 
2682 90560 
2683 90560 
2684 90560 
2685 90560 
2686 90560 
2687 90560 
2688 90560 
2689 90560 
2690 90560 
2691 90560 
2692 90560 
2693 90560 
2694 90560 
2695 90560 
2696 90560 
2697 90560 
2698 90560 
2699 90560 
2700 90560 
2701 90560 
2702 90560 
2703 90560 
2704 90560 
2705 90560 
2706 90560 
2707 90560 
2708 90560 
2709 90560 
2710 90560 
2711 90560 
2712 90560 
2713 90560 
2714 90560 
2715 90560 
2716 90560 
2717 90560 
2718 90560 
2719 90560 
2720 90560 
2721 90560 
2722 90560 
2723 90560 
2724 90560 
2725 90560 
2726 90560 
2727 90560 
2728 90560 
2729 90560 
2730 90560 
2731 90560 
2732 90560 
2733 90560 
2734 90560 
2735 90560 
2736 90560 
2737 90560 
2738 90560 
2739 90560 
2740 90560 
2741 90560 
2742 90560 
2743 90560 
2744 90560 
2745 90560 
2746 90560 
2747 90560 
2748 90560 
2749 90560 
2750 90560 
2751 90560 
2752 90560 
2753 90560 
2754 90560 
2755 90560 
2756 90560 
2757 90560 
2758 90560 
2759 90560 
2760 90560 
2761 90560 
2762 90560 
2763 90560 
2764 90560 
2765 90560 
2766 90560 
2767 90560 
2768 90560 
2769 90560 
2770 90560 
2771 90560 
2772 90560 
2773 90560 
2774 90560 
2775 90560 
2776 90560 
2777 90560 
2778 90560 
2779 90560 
2780 90560 
2781 90560 
2782 90560 
2783 90560 
2784 90560 
2785 90560 
2786 90560 
2787 90560 
2788 90560 
2789 90560 
2790 90560 
2791 90560 
2792 90560 
2793 90560 
2794 90560 
2795 90560 
2796 90560 
2797 90560 
2798 90560 
2799 90560 
2800 90560 
2801 90560 
2802 90560 
2803 90560 
2804 90560 
2805 90560 
2806 90560 
2807 90560 
2808 90560 
2809 90560 
2810 90560 
2811 90560 
2812 90560 
2813 90560 
2814 90560 
2815 90560 
2816 90560 
2817 90560 
2818 90560 
2819 90560 
2820 90560 
2821 90560 
2822 90560 
2823 90560 
2824 90560 
2825 90560 
2826 90560 
2827 90560 
2828 90560 
2829 90560 
2830 90560 
2831 90560 
2832 90560 
2833 90560 
2834 90560 
2835 90560 
2836 90560 
2837 90560 
2838 90560 
2839 90560 
2840 90560 
2841 90560 
2842 90560 
2843 90560 
2844 90560 
2845 90560 
2846 90560 
2847 90560 
2848 90560 
2849 90560 
2850 90560 
2851 90560 
2852 90560 
2853 90560 
2854 90560 
2855 90560 
2856 90560 
2857 90560 
2858 90560 
2859 90560 
2860 90560 
2861 90560 
2862 90560 
2863 90560 
2864 90560 
2865 90560 
2866 90560 
2867 90560 
2868 90560 
2869 90560 
2870 90560 
2871 90560 
2872 90560 
2873 90560 
2874 90560 
2875 90560 
2876 90560 
2877 90560 
2878 90560 
2879 90560 
2880 90560 
2881 90560 
2882 90560 
2883 90560 
2884 90560 
2885 90560 
2886 90560 
2887 90560 
2888 90560 
2889 90560 
2890 90560 
2891 90560 
2892 90560 
2893 90560 
2894 90560 
2895 90560 
2896 90560 
2897 90560 
2898 90560 
2899 90560 
2900 90560 
2901 90560 
2902 90560 
2903 90560 
2904 90560 
2905 90560 
2906 90560 
2907 90560 
2908 90560 
2909 90560 
2910 90560 
2911 90560 
2912 90560 
2913 90560 
2914 90560 
2915 90560 
2916 90560 
2917 90560 
2918 90560 
2919 90560 
2920 90560 
2921 90560 
2922 90560 
2923 90560 
2924 90560 
2925 90560 
2926 90560 
2927 90560 
2928 90560 
2929 90560 
2930 90560 
2931 90560 
2932 90560 
2933 90560 
2934 90560 
2935 90560 
2936 90560 
2937 90560 
2938 90560 
2939 90560 
2940 90560 
2941 90560 
2942 90560 
2943 90560 
2944 90560 
2945 90560 
2946 90560 
2947 90560 
2948 90560 
2949 90560 
2950 90560 
2951 90560 
2952 90560 
2953 90560 
2954 90560 
2955 90560 
2956 90560 
2957 90560 
2958 90560 
2959 90560 
2960 90560 
2961 90560 
2962 90560 
2963 90560 
2964 90560 
2965 90560 
2966 90560 
2967 90560 
2968 90560 
2969 90560 
2970 90560 
2971 90560 
2972 90560 
2973 90560 
2974 90560 
2975 90560 
2976 90560 
2977 90560 
2978 90560 
2979 90560 
2980 90560 
2981 90560 
2982 90560 
2983 90560 
2984 90560 
2985 90560 
2986 90560 
2987 90560 
2988 90560 
2989 90560 
2990 90560 
2991 90560 
2992 90560 
2993 90560 
2994 90560 
2995 90560 
2996 90560 
2997 90560 
2998 90560 
2999 90560 
3000 90560 
3001 90560 
3002 90560 
3003 90560 
3004 90560 
3005 90560 
3006 90560 
3007 90560 
3008 90560 
3009 90560 
3010 90560 
3011 90560 
3012 90560 
3013 90560 
3014 90560 
3015 90560 
3016 90560 
3017 90560 
3018 90560 
3019 90560 
3020 90560 
3021 90560 
3022 90560 
3023 90560 
3024 90560 
3025 90560 
3026 90560 
3027 90560 
3028 90560 
3029 90560 
3030 90560 
3031 90560 
3032 90560 
3033 90560 
3034 90560 
3035 90560 
3036 90560 
3037 90560 
3038 90560 
3039 90560 
3040 90560 
3041 90560 
3042 90560 
3043 90560 
3044 90560 
3045 90560 
3046 90560 
3047 90560 
3048 90560 
3049 90560 
3050 90560 
3051 90560 
3052 90560 
3053 90560 
3054 90560 
3055 90560 
3056 90560 
3057 90560 
3058 90560 
3059 90560 
3060 90560 
3061 90560 
3062 90560 
3063 90560 
3064 90560 
3065 90560 
3066 90560 
3067 90560 
3068 90560 
3069 90560 
3070 90560 
3071 90560 
3072 90560 
3073 90560 
3074 90560 
3075 90560 
3076 90560 
3077 90560 
3078 90560 
3079 90560 
3080 90560 
3081 90560 
3082 90560 
3083 90560 
3084 90560 
3085 90560 
3086 90560 
3087 90560 
3088 90560 
3089 90560 
3090 90560 
3091 90560 
3092 90560 
3093 90560 
3094 90560 
3095 90560 
3096 90560 
3097 90560 
3098 90560 
3099 90560 
3100 90560 
3101 90560 
3102 90560 
3103 90560 
3104 90560 
3105 90560 
3106 90560 
3107 90560 
3108 90560 
3109 90560 
3110 90560 
3111 90560 
3112 90560 
3113 90560 
3114 90560 
3115 90560 
3116 90560 
3117 90560 
3118 90560 
3119 90560 
3120 90560 
3121 90560 
3122 90560 
3123 90560 
3124 90560 
3125 90560 
3126 90560 
3127 90560 
3128 90560 
3129 90560 
3130 90560 
3131 90560 
3132 90560 
3133 90560 
3134 90560 
3135 90560 
3136 90560 
3137 90560 
3138 90560 
3139 90560 
3140 90560 
3141 90560 
3142 90560 
3143 90560 
3144 90560 
3145 90560 
3146 90560 
3147 90560 
3148 90560 
3149 90560 
3150 90560 
3151 90560 
3152 90560 
3153 90560 
3154 90560 
3155 90560 
3156 90560 
3157 90560 
3158 90560 
3159 90560 
3160 90560 
3161 90560 
3162 90560 
3163 90560 
3164 90560 
3165 90560 
3166 90560 
3167 90560 
3168 90560 
3169 90560 
3170 90560 
3171 90560 
3172 90560 
3173 90560 
3174 90560 
3175 90560 
3176 90560 
3177 90560 
3178 90560 
3179 90560 
3180 90560 
3181 90560 
3182 90560 
3183 90560 
3184 90560 
3185 90560 
3186 90560 
3187 90560 
3188 90560 
3189 90560 
3190 90560 
3191 90560 
3192 90560 
3193 90560 
3194 90560 
3195 90560 
3196 90560 
3197 90560 
3198 90560 
3199 90560 
3200 90560 
3201 90560 
3202 90560 
3203 90560 
3204 90560 
3205 90560 
3206 90560 
3207 90560 
3208 90560 
3209 90560 
3210 90560 
3211 90560 
3212 90560 
3213 90560 
3214 90560 
3215 90560 
3216 90560 
3217 90560 
3218 90560 
3219 90560 

